Li2 P20
1.0
3.342886 0.000000 0.000000
0.000000 27.372864 0.000000
0.000000 0.000000 30.937078
P Li
20 2
direct
0.000000 0.365325 0.453182 P
0.500000 0.365325 0.405407 P
0.000000 0.443626 0.334702 P
0.500000 0.443626 0.382477 P
0.500000 0.556374 0.453182 P
0.000000 0.556374 0.405407 P
0.500000 0.634675 0.334702 P
0.000000 0.634675 0.382477 P
0.000000 0.365325 0.594593 P
0.500000 0.365325 0.546818 P
0.000000 0.443626 0.476112 P
0.500000 0.443626 0.523888 P
0.500000 0.556374 0.594593 P
0.000000 0.556374 0.546818 P
0.500000 0.634675 0.476112 P
0.000000 0.634675 0.523888 P
0.000000 0.443626 0.617523 P
0.500000 0.443626 0.665298 P
0.500000 0.634675 0.617523 P
0.000000 0.634675 0.665298 P
0.250083 0.482777 0.429281 Li
0.499867 0.497135 0.484425 Li
