P 
1.0
		3.3428860000         0.0000000000         0.0000000000
		0.0000000000         43.0614985592         0.0000000000
		0.0000000000         0.0000000000         52.8112325000
P
150
Cartesian
	0.0000000000         10.0000000000         14.0201372018
	1.6714430000         10.0000000000         12.5421092982
	0.0000000000         12.1433185592         10.3546937982
	1.6714430000         12.1433185592         11.8327217018
	0.0000000000         15.2295450000         14.0201372018
	1.6714430000         15.2295450000         12.5421092982
	0.0000000000         17.3728635592         10.3546937982
	1.6714430000         17.3728635592         11.8327217018
	0.0000000000         20.4590900000         14.0201372018
	1.6714430000         20.4590900000         12.5421092982
	0.0000000000         22.6024085592         10.3546937982
	1.6714430000         22.6024085592         11.8327217018
	0.0000000000         25.6886350000         14.0201372018
	1.6714430000         25.6886350000         12.5421092982
	0.0000000000         27.8319535592         10.3546937982
	1.6714430000         27.8319535592         11.8327217018
	0.0000000000         30.9181800000         14.0201372018
	1.6714430000         30.9181800000         12.5421092982
	0.0000000000         33.0614985592         10.3546937982
	1.6714430000         33.0614985592         11.8327217018
	0.0000000000         10.0000000000         18.3949682018
	1.6714430000         10.0000000000         16.9169402982
	0.0000000000         12.1433185592         14.7295247982
	1.6714430000         12.1433185592         16.2075527018
	0.0000000000         15.2295450000         18.3949682018
	1.6714430000         15.2295450000         16.9169402982
	0.0000000000         17.3728635592         14.7295247982
	1.6714430000         17.3728635592         16.2075527018
	0.0000000000         20.4590900000         18.3949682018
	1.6714430000         20.4590900000         16.9169402982
	0.0000000000         22.6024085592         14.7295247982
	1.6714430000         22.6024085592         16.2075527018
	0.0000000000         25.6886350000         18.3949682018
	1.6714430000         25.6886350000         16.9169402982
	0.0000000000         27.8319535592         14.7295247982
	1.6714430000         27.8319535592         16.2075527018
	0.0000000000         30.9181800000         18.3949682018
	1.6714430000         30.9181800000         16.9169402982
	0.0000000000         33.0614985592         14.7295247982
	1.6714430000         33.0614985592         16.2075527018
	0.0000000000         10.0000000000         22.7697992018
	1.6714430000         10.0000000000         21.2917712982
	0.0000000000         12.1433185592         19.1043557982
	1.6714430000         12.1433185592         20.5823837018
	0.0000000000         15.2295450000         22.7697992018
	1.6714430000         15.2295450000         21.2917712982
	0.0000000000         17.3728635592         19.1043557982
	1.6714430000         17.3728635592         20.5823837018
	0.0000000000         20.4590900000         22.7697992018
	1.6714430000         20.4590900000         21.2917712982
	0.0000000000         22.6024085592         19.1043557982
	1.6714430000         22.6024085592         20.5823837018
	0.0000000000         25.6886350000         22.7697992018
	1.6714430000         25.6886350000         21.2917712982
	0.0000000000         27.8319535592         19.1043557982
	1.6714430000         27.8319535592         20.5823837018
	0.0000000000         30.9181800000         22.7697992018
	1.6714430000         30.9181800000         21.2917712982
	0.0000000000         33.0614985592         19.1043557982
	1.6714430000         33.0614985592         20.5823837018
	0.0000000000         10.0000000000         27.1446302018
	1.6714430000         10.0000000000         25.6666022982
	0.0000000000         12.1433185592         23.4791867982
	1.6714430000         12.1433185592         24.9572147018
	0.0000000000         15.2295450000         27.1446302018
	1.6714430000         15.2295450000         25.6666022982
	0.0000000000         17.3728635592         23.4791867982
	1.6714430000         17.3728635592         24.9572147018
	0.0000000000         20.4590900000         27.1446302018
	1.6714430000         20.4590900000         25.6666022982
	0.0000000000         22.6024085592         23.4791867982
	1.6714430000         22.6024085592         24.9572147018
	0.0000000000         25.6886350000         27.1446302018
	1.6714430000         25.6886350000         25.6666022982
	0.0000000000         27.8319535592         23.4791867982
	1.6714430000         27.8319535592         24.9572147018
	0.0000000000         30.9181800000         27.1446302018
	1.6714430000         30.9181800000         25.6666022982
	0.0000000000         33.0614985592         23.4791867982
	1.6714430000         33.0614985592         24.9572147018
	0.0000000000         10.0000000000         31.5194612018
	1.6714430000         10.0000000000         30.0414332982
	0.0000000000         12.1433185592         27.8540177982
	1.6714430000         12.1433185592         29.3320457018
	0.0000000000         15.2295450000         31.5194612018
	1.6714430000         15.2295450000         30.0414332982
	0.0000000000         17.3728635592         27.8540177982
	1.6714430000         17.3728635592         29.3320457018
	0.0000000000         20.4590900000         31.5194612018
	1.6714430000         20.4590900000         30.0414332982
	0.0000000000         22.6024085592         27.8540177982
	1.6714430000         22.6024085592         29.3320457018
	0.0000000000         25.6886350000         31.5194612018
	1.6714430000         25.6886350000         30.0414332982
	0.0000000000         27.8319535592         27.8540177982
	1.6714430000         27.8319535592         29.3320457018
	0.0000000000         30.9181800000         31.5194612018
	1.6714430000         30.9181800000         30.0414332982
	0.0000000000         33.0614985592         27.8540177982
	1.6714430000         33.0614985592         29.3320457018
	0.0000000000         10.0000000000         35.8942922018
	1.6714430000         10.0000000000         34.4162642982
	0.0000000000         12.1433185592         32.2288487982
	1.6714430000         12.1433185592         33.7068767018
	0.0000000000         15.2295450000         35.8942922018
	1.6714430000         15.2295450000         34.4162642982
	0.0000000000         17.3728635592         32.2288487982
	1.6714430000         17.3728635592         33.7068767018
	0.0000000000         20.4590900000         35.8942922018
	1.6714430000         20.4590900000         34.4162642982
	0.0000000000         22.6024085592         32.2288487982
	1.6714430000         22.6024085592         33.7068767018
	0.0000000000         25.6886350000         35.8942922018
	1.6714430000         25.6886350000         34.4162642982
	0.0000000000         27.8319535592         32.2288487982
	1.6714430000         27.8319535592         33.7068767018
	0.0000000000         30.9181800000         35.8942922018
	1.6714430000         30.9181800000         34.4162642982
	0.0000000000         33.0614985592         32.2288487982
	1.6714430000         33.0614985592         33.7068767018
	0.0000000000         10.0000000000         40.2691232018
	1.6714430000         10.0000000000         38.7910952982
	0.0000000000         12.1433185592         36.6036797982
	1.6714430000         12.1433185592         38.0817077018
	0.0000000000         15.2295450000         40.2691232018
	1.6714430000         15.2295450000         38.7910952982
	0.0000000000         17.3728635592         36.6036797982
	1.6714430000         17.3728635592         38.0817077018
	0.0000000000         20.4590900000         40.2691232018
	1.6714430000         20.4590900000         38.7910952982
	0.0000000000         22.6024085592         36.6036797982
	1.6714430000         22.6024085592         38.0817077018
	0.0000000000         25.6886350000         40.2691232018
	1.6714430000         25.6886350000         38.7910952982
	0.0000000000         27.8319535592         36.6036797982
	1.6714430000         27.8319535592         38.0817077018
	0.0000000000         30.9181800000         40.2691232018
	1.6714430000         30.9181800000         38.7910952982
	0.0000000000         33.0614985592         36.6036797982
	1.6714430000         33.0614985592         38.0817077018
	0.0000000000         12.1433185592         40.9785107982
	1.6714430000         12.1433185592         42.4565387018
	0.0000000000         17.3728635592         40.9785107982
	1.6714430000         17.3728635592         42.4565387018
	0.0000000000         22.6024085592         40.9785107982
	1.6714430000         22.6024085592         42.4565387018
	0.0000000000         27.8319535592         40.9785107982
	1.6714430000         27.8319535592         42.4565387018
	0.0000000000         33.0614985592         40.9785107982
	1.6714430000         33.0614985592         42.4565387018
