P8
1.0
3.342886 0.000000 0.000000
0.000000 27.372864 0.000000
0.000000 0.000000 4.374831
P
8
direct
0.000000 0.365325 0.918924 P
0.500000 0.365325 0.581076 P
0.000000 0.443626 0.081076 P
0.500000 0.443626 0.418924 P
0.000000 0.556374 0.918924 P
0.500000 0.556374 0.581076 P
0.000000 0.634675 0.081076 P
0.500000 0.634675 0.418924 P
