P 
1.0
		3.3428860000         0.0000000000         0.0000000000
		0.0000000000         27.3728635592         0.0000000000
		0.0000000000         0.0000000000         30.9370775000
P
20
Cartesian
	0.0000000000         10.0000000000         14.0201372018
	1.6714430000         10.0000000000         12.5421092982
	0.0000000000         12.1433185592         10.3546937982
	1.6714430000         12.1433185592         11.8327217018
	1.6714430000         15.2295450000         14.0201372018
	0.0000000000         15.2295450000         12.5421092982
	1.6714430000         17.3728635592         10.3546937982
	0.0000000000         17.3728635592         11.8327217018
	0.0000000000         10.0000000000         18.3949682018
	1.6714430000         10.0000000000         16.9169402982
	0.0000000000         12.1433185592         14.7295247982
	1.6714430000         12.1433185592         16.2075527018
	1.6714430000         15.2295450000         18.3949682018
	0.0000000000         15.2295450000         16.9169402982
	1.6714430000         17.3728635592         14.7295247982
	0.0000000000         17.3728635592         16.2075527018
	0.0000000000         12.1433185592         19.1043557982
	1.6714430000         12.1433185592         20.5823837018
	1.6714430000         17.3728635592         19.1043557982
	0.0000000000         17.3728635592         20.5823837018
