P1
1.0
        3.3199000359         0.0000000000         0.0000000000
        0.0000000000        10.3677997589         0.0000000000
        0.0000000000         0.0000000000         4.3154001236
    P
    8
Direct
     0.500000000         0.104369998         0.917900026
     0.500000000         0.895630002         0.082099974
     0.500000000         0.395630002         0.417900026
     0.500000000         0.604369998         0.582099974
     0.000000000         0.604369998         0.917900026
     0.000000000         0.395630002         0.082099974
     0.000000000         0.895630002         0.417900026
     0.000000000         0.104369998         0.582099974
